c description: Tseitin formula on Random 4-regular graph of 43 vertices, with odd charge
c generator: CNFgen (0.9.2)
c copyright: (C) 2012-2022 Massimo Lauria <massimo.lauria@uniroma1.it>
c url: https://massimolauria.net/cnfgen
c command line: cnfgen tseitin 43
c
p cnf 86 344
1 2 3 4 0
1 2 -3 -4 0
1 -2 3 -4 0
1 -2 -3 4 0
-1 2 3 -4 0
-1 2 -3 4 0
-1 -2 3 4 0
-1 -2 -3 -4 0
5 6 7 8 0
5 6 -7 -8 0
5 -6 7 -8 0
5 -6 -7 8 0
-5 6 7 -8 0
-5 6 -7 8 0
-5 -6 7 8 0
-5 -6 -7 -8 0
9 10 11 12 0
9 10 -11 -12 0
9 -10 11 -12 0
9 -10 -11 12 0
-9 10 11 -12 0
-9 10 -11 12 0
-9 -10 11 12 0
-9 -10 -11 -12 0
13 14 15 -16 0
13 14 -15 16 0
13 -14 15 16 0
13 -14 -15 -16 0
-13 14 15 16 0
-13 14 -15 -16 0
-13 -14 15 -16 0
-13 -14 -15 16 0
17 18 19 -20 0
17 18 -19 20 0
17 -18 19 20 0
17 -18 -19 -20 0
-17 18 19 20 0
-17 18 -19 -20 0
-17 -18 19 -20 0
-17 -18 -19 20 0
5 21 22 -23 0
5 21 -22 23 0
5 -21 22 23 0
5 -21 -22 -23 0
-5 21 22 23 0
-5 21 -22 -23 0
-5 -21 22 -23 0
-5 -21 -22 23 0
24 25 26 27 0
24 25 -26 -27 0
24 -25 26 -27 0
24 -25 -26 27 0
-24 25 26 -27 0
-24 25 -26 27 0
-24 -25 26 27 0
-24 -25 -26 -27 0
28 29 30 -31 0
28 29 -30 31 0
28 -29 30 31 0
28 -29 -30 -31 0
-28 29 30 31 0
-28 29 -30 -31 0
-28 -29 30 -31 0
-28 -29 -30 31 0
32 33 34 35 0
32 33 -34 -35 0
32 -33 34 -35 0
32 -33 -34 35 0
-32 33 34 -35 0
-32 33 -34 35 0
-32 -33 34 35 0
-32 -33 -34 -35 0
21 36 37 -38 0
21 36 -37 38 0
21 -36 37 38 0
21 -36 -37 -38 0
-21 36 37 38 0
-21 36 -37 -38 0
-21 -36 37 -38 0
-21 -36 -37 38 0
32 39 40 41 0
32 39 -40 -41 0
32 -39 40 -41 0
32 -39 -40 41 0
-32 39 40 -41 0
-32 39 -40 41 0
-32 -39 40 41 0
-32 -39 -40 -41 0
9 28 42 -43 0
9 28 -42 43 0
9 -28 42 43 0
9 -28 -42 -43 0
-9 28 42 43 0
-9 28 -42 -43 0
-9 -28 42 -43 0
-9 -28 -42 43 0
10 13 33 44 0
10 13 -33 -44 0
10 -13 33 -44 0
10 -13 -33 44 0
-10 13 33 -44 0
-10 13 -33 44 0
-10 -13 33 44 0
-10 -13 -33 -44 0
17 42 45 -46 0
17 42 -45 46 0
17 -42 45 46 0
17 -42 -45 -46 0
-17 42 45 46 0
-17 42 -45 -46 0
-17 -42 45 -46 0
-17 -42 -45 46 0
24 47 48 -49 0
24 47 -48 49 0
24 -47 48 49 0
24 -47 -48 -49 0
-24 47 48 49 0
-24 47 -48 -49 0
-24 -47 48 -49 0
-24 -47 -48 49 0
50 51 52 -53 0
50 51 -52 53 0
50 -51 52 53 0
50 -51 -52 -53 0
-50 51 52 53 0
-50 51 -52 -53 0
-50 -51 52 -53 0
-50 -51 -52 53 0
6 22 54 55 0
6 22 -54 -55 0
6 -22 54 -55 0
6 -22 -54 55 0
-6 22 54 -55 0
-6 22 -54 55 0
-6 -22 54 55 0
-6 -22 -54 -55 0
25 47 56 57 0
25 47 -56 -57 0
25 -47 56 -57 0
25 -47 -56 57 0
-25 47 56 -57 0
-25 47 -56 57 0
-25 -47 56 57 0
-25 -47 -56 -57 0
29 58 59 60 0
29 58 -59 -60 0
29 -58 59 -60 0
29 -58 -59 60 0
-29 58 59 -60 0
-29 58 -59 60 0
-29 -58 59 60 0
-29 -58 -59 -60 0
18 36 61 62 0
18 36 -61 -62 0
18 -36 61 -62 0
18 -36 -61 62 0
-18 36 61 -62 0
-18 36 -61 62 0
-18 -36 61 62 0
-18 -36 -61 -62 0
23 63 64 65 0
23 63 -64 -65 0
23 -63 64 -65 0
23 -63 -64 65 0
-23 63 64 -65 0
-23 63 -64 65 0
-23 -63 64 65 0
-23 -63 -64 -65 0
30 66 67 68 0
30 66 -67 -68 0
30 -66 67 -68 0
30 -66 -67 68 0
-30 66 67 -68 0
-30 66 -67 68 0
-30 -66 67 68 0
-30 -66 -67 -68 0
7 69 70 71 0
7 69 -70 -71 0
7 -69 70 -71 0
7 -69 -70 71 0
-7 69 70 -71 0
-7 69 -70 71 0
-7 -69 70 71 0
-7 -69 -70 -71 0
19 26 34 -72 0
19 26 -34 72 0
19 -26 34 72 0
19 -26 -34 -72 0
-19 26 34 72 0
-19 26 -34 -72 0
-19 -26 34 -72 0
-19 -26 -34 72 0
14 37 39 -73 0
14 37 -39 73 0
14 -37 39 73 0
14 -37 -39 -73 0
-14 37 39 73 0
-14 37 -39 -73 0
-14 -37 39 -73 0
-14 -37 -39 73 0
63 72 74 75 0
63 72 -74 -75 0
63 -72 74 -75 0
63 -72 -74 75 0
-63 72 74 -75 0
-63 72 -74 75 0
-63 -72 74 75 0
-63 -72 -74 -75 0
20 38 40 -76 0
20 38 -40 76 0
20 -38 40 76 0
20 -38 -40 -76 0
-20 38 40 76 0
-20 38 -40 -76 0
-20 -38 40 -76 0
-20 -38 -40 76 0
8 66 77 78 0
8 66 -77 -78 0
8 -66 77 -78 0
8 -66 -77 78 0
-8 66 77 -78 0
-8 66 -77 78 0
-8 -66 77 78 0
-8 -66 -77 -78 0
11 35 58 79 0
11 35 -58 -79 0
11 -35 58 -79 0
11 -35 -58 79 0
-11 35 58 -79 0
-11 35 -58 79 0
-11 -35 58 79 0
-11 -35 -58 -79 0
59 67 69 -80 0
59 67 -69 80 0
59 -67 69 80 0
59 -67 -69 -80 0
-59 67 69 80 0
-59 67 -69 -80 0
-59 -67 69 -80 0
-59 -67 -69 80 0
15 79 81 82 0
15 79 -81 -82 0
15 -79 81 -82 0
15 -79 -81 82 0
-15 79 81 -82 0
-15 79 -81 82 0
-15 -79 81 82 0
-15 -79 -81 -82 0
61 76 81 83 0
61 76 -81 -83 0
61 -76 81 -83 0
61 -76 -81 83 0
-61 76 81 -83 0
-61 76 -81 83 0
-61 -76 81 83 0
-61 -76 -81 -83 0
68 82 83 84 0
68 82 -83 -84 0
68 -82 83 -84 0
68 -82 -83 84 0
-68 82 83 -84 0
-68 82 -83 84 0
-68 -82 83 84 0
-68 -82 -83 -84 0
50 54 56 62 0
50 54 -56 -62 0
50 -54 56 -62 0
50 -54 -56 62 0
-50 54 56 -62 0
-50 54 -56 62 0
-50 -54 56 62 0
-50 -54 -56 -62 0
1 45 64 85 0
1 45 -64 -85 0
1 -45 64 -85 0
1 -45 -64 85 0
-1 45 64 -85 0
-1 45 -64 85 0
-1 -45 64 85 0
-1 -45 -64 -85 0
41 60 70 86 0
41 60 -70 -86 0
41 -60 70 -86 0
41 -60 -70 86 0
-41 60 70 -86 0
-41 60 -70 86 0
-41 -60 70 86 0
-41 -60 -70 -86 0
2 65 74 84 0
2 65 -74 -84 0
2 -65 74 -84 0
2 -65 -74 84 0
-2 65 74 -84 0
-2 65 -74 84 0
-2 -65 74 84 0
-2 -65 -74 -84 0
44 46 51 -86 0
44 46 -51 86 0
44 -46 51 86 0
44 -46 -51 -86 0
-44 46 51 86 0
-44 46 -51 -86 0
-44 -46 51 -86 0
-44 -46 -51 86 0
27 71 73 77 0
27 71 -73 -77 0
27 -71 73 -77 0
27 -71 -73 77 0
-27 71 73 -77 0
-27 71 -73 77 0
-27 -71 73 77 0
-27 -71 -73 -77 0
43 48 52 78 0
43 48 -52 -78 0
43 -48 52 -78 0
43 -48 -52 78 0
-43 48 52 -78 0
-43 48 -52 78 0
-43 -48 52 78 0
-43 -48 -52 -78 0
16 31 53 80 0
16 31 -53 -80 0
16 -31 53 -80 0
16 -31 -53 80 0
-16 31 53 -80 0
-16 31 -53 80 0
-16 -31 53 80 0
-16 -31 -53 -80 0
3 12 57 85 0
3 12 -57 -85 0
3 -12 57 -85 0
3 -12 -57 85 0
-3 12 57 -85 0
-3 12 -57 85 0
-3 -12 57 85 0
-3 -12 -57 -85 0
4 49 55 75 0
4 49 -55 -75 0
4 -49 55 -75 0
4 -49 -55 75 0
-4 49 55 -75 0
-4 49 -55 75 0
-4 -49 55 75 0
-4 -49 -55 -75 0
